JulietBench/Juliet_Based_Patch_Bench/linux/CWE-189-Numeric-Errors/CVE_2014_3145_05ab8f2647e4221cbdb3856dd7d32bd5407316b3/solver__skb_get_nlattr_nest_Snippet_patch2.smt2
; benchmark generated from python API
(set-info :status unknown)
(declare-fun R () (_ BitVec 32))
(declare-fun rdi () (_ BitVec 64))
(declare-fun rsi () (_ BitVec 64))
(assert
 (let (($x40 (= (_ bv0 32) R)))
 (let ((?x6 ((_ extract 31 0) rdi)))
 (let ((?x7 ((_ zero_extend 32) ?x6)))
 (let ((?x9 (bvsub ?x7 (_ bv4 64))))
 (let (($x55 (bvugt rsi ?x9)))
 (let (($x46 (and $x55 $x40)))
 (let ((?x68 ((_ extract 15 0) rsi)))
 (let ((?x38 (concat (_ bv0 16) ?x68)))
 (let (($x43 (= R ?x38)))
 (let (($x13 (bvule rsi ?x9)))
 (let ((?x59 (bvsub rsi ?x7)))
 (let ((?x69 ((_ zero_extend 48) ?x68)))
 (let (($x65 (bvule ?x69 ?x59)))
 (let (($x44 (and $x65 $x13 $x43)))
 (let (($x1185 (bvugt ?x69 ?x59)))
 (let (($x114 (and $x1185 $x13 $x40)))
 (let (($x47 (or $x114 $x44 $x46)))
 (let (($x1209 (not $x47)))
 (let (($x1210 (or $x114 $x44 $x46 $x1209)))
 (not $x1210)))))))))))))))))))))
(check-sat)
